NAME          pyramid
*   Maximum: 4200 
*   Minimum: 0
*   ieqs = [[0,1,0,0],[0,0,1,0,],[0,-1,0,1],[0,0,-1,1],[0,-1,0,2],[0,0,-1,2],[200,0,0,-1,]])
ROWS
 L  0
 L  1
 L  2
 L  3
 L  4
 N  c
COLUMNS
    x0        0         1.             c         -100.
    x0        3         1.
    x1        1         1.             c         -100.
    x1        4         1.
    x2        0         -1.            1         -1.
    x2        2         1.             c         -10.
    x2        3         -2.            4         -2.
RHS
    b         2         200.
ENDATA
